c 3 - XORSAT
p cnf 40 160
25 29 35 0
-25 -29 35 0
-25 29 -35 0
25 -29 -35 0
-25 -33 -37 0
-25 33 37 0
25 -33 37 0
25 33 -37 0
-21 -26 -38 0
-21 26 38 0
21 -26 38 0
21 26 -38 0
34 36 10 0
-34 -36 10 0
-34 36 -10 0
34 -36 -10 0
15 27 34 0
-15 -27 34 0
-15 27 -34 0
15 -27 -34 0
-23 -30 -34 0
-23 30 34 0
23 -30 34 0
23 30 -34 0
20 21 24 0
-20 -21 24 0
-20 21 -24 0
20 -21 -24 0
6 8 11 0
-6 -8 11 0
-6 8 -11 0
6 -8 -11 0
-12 -15 -31 0
-12 15 31 0
12 -15 31 0
12 15 -31 0
-2 -24 -14 0
-2 24 14 0
2 -24 14 0
2 24 -14 0
13 30 37 0
-13 -30 37 0
-13 30 -37 0
13 -30 -37 0
-17 -20 -21 0
-17 20 21 0
17 -20 21 0
17 20 -21 0
5 7 13 0
-5 -7 13 0
-5 7 -13 0
5 -7 -13 0
10 24 32 0
-10 -24 32 0
-10 24 -32 0
10 -24 -32 0
-6 -18 -19 0
-6 18 19 0
6 -18 19 0
6 18 -19 0
27 31 40 0
-27 -31 40 0
-27 31 -40 0
27 -31 -40 0
2 17 25 0
-2 -17 25 0
-2 17 -25 0
2 -17 -25 0
-7 -12 -38 0
-7 12 38 0
7 -12 38 0
7 12 -38 0
9 16 5 0
-9 -16 5 0
-9 16 -5 0
9 -16 -5 0
-9 -23 -33 0
-9 23 33 0
9 -23 33 0
9 23 -33 0
11 14 18 0
-11 -14 18 0
-11 14 -18 0
11 -14 -18 0
3 31 36 0
-3 -31 36 0
-3 31 -36 0
3 -31 -36 0
1 10 20 0
-1 -10 20 0
-1 10 -20 0
1 -10 -20 0
-1 -11 -19 0
-1 11 19 0
1 -11 19 0
1 11 -19 0
8 37 39 0
-8 -37 39 0
-8 37 -39 0
8 -37 -39 0
4 18 22 0
-4 -18 22 0
-4 18 -22 0
4 -18 -22 0
-19 -23 -29 0
-19 23 29 0
19 -23 29 0
19 23 -29 0
-2 -27 -28 0
-2 27 28 0
2 -27 28 0
2 27 -28 0
-3 -4 -6 0
-3 4 6 0
3 -4 6 0
3 4 -6 0
-1 -15 -22 0
-1 15 22 0
1 -15 22 0
1 15 -22 0
39 40 32 0
-39 -40 32 0
-39 40 -32 0
39 -40 -32 0
5 29 35 0
-5 -29 35 0
-5 29 -35 0
5 -29 -35 0
30 28 32 0
-30 -28 32 0
-30 28 -32 0
30 -28 -32 0
12 39 40 0
-12 -39 40 0
-12 39 -40 0
12 -39 -40 0
-8 -9 -36 0
-8 9 36 0
8 -9 36 0
8 9 -36 0
-26 -28 -33 0
-26 28 33 0
26 -28 33 0
26 28 -33 0
13 14 26 0
-13 -14 26 0
-13 14 -26 0
13 -14 -26 0
16 35 38 0
-16 -35 38 0
-16 35 -38 0
16 -35 -38 0
-16 -17 -22 0
-16 17 22 0
16 -17 22 0
16 17 -22 0
3 4 7 0
-3 -4 7 0
-3 4 -7 0
3 -4 -7 0
